c Generated grid graph
p edge 676 1300
e 1 2
e 1 27
e 2 3
e 2 28
e 3 4
e 3 29
e 4 5
e 4 30
e 5 6
e 5 31
e 6 7
e 6 32
e 7 8
e 7 33
e 8 9
e 8 34
e 9 10
e 9 35
e 10 11
e 10 36
e 11 12
e 11 37
e 12 13
e 12 38
e 13 14
e 13 39
e 14 15
e 14 40
e 15 16
e 15 41
e 16 17
e 16 42
e 17 18
e 17 43
e 18 19
e 18 44
e 19 20
e 19 45
e 20 21
e 20 46
e 21 22
e 21 47
e 22 23
e 22 48
e 23 24
e 23 49
e 24 25
e 24 50
e 25 26
e 25 51
e 26 52
e 27 28
e 27 53
e 28 29
e 28 54
e 29 30
e 29 55
e 30 31
e 30 56
e 31 32
e 31 57
e 32 33
e 32 58
e 33 34
e 33 59
e 34 35
e 34 60
e 35 36
e 35 61
e 36 37
e 36 62
e 37 38
e 37 63
e 38 39
e 38 64
e 39 40
e 39 65
e 40 41
e 40 66
e 41 42
e 41 67
e 42 43
e 42 68
e 43 44
e 43 69
e 44 45
e 44 70
e 45 46
e 45 71
e 46 47
e 46 72
e 47 48
e 47 73
e 48 49
e 48 74
e 49 50
e 49 75
e 50 51
e 50 76
e 51 52
e 51 77
e 52 78
e 53 54
e 53 79
e 54 55
e 54 80
e 55 56
e 55 81
e 56 57
e 56 82
e 57 58
e 57 83
e 58 59
e 58 84
e 59 60
e 59 85
e 60 61
e 60 86
e 61 62
e 61 87
e 62 63
e 62 88
e 63 64
e 63 89
e 64 65
e 64 90
e 65 66
e 65 91
e 66 67
e 66 92
e 67 68
e 67 93
e 68 69
e 68 94
e 69 70
e 69 95
e 70 71
e 70 96
e 71 72
e 71 97
e 72 73
e 72 98
e 73 74
e 73 99
e 74 75
e 74 100
e 75 76
e 75 101
e 76 77
e 76 102
e 77 78
e 77 103
e 78 104
e 79 80
e 79 105
e 80 81
e 80 106
e 81 82
e 81 107
e 82 83
e 82 108
e 83 84
e 83 109
e 84 85
e 84 110
e 85 86
e 85 111
e 86 87
e 86 112
e 87 88
e 87 113
e 88 89
e 88 114
e 89 90
e 89 115
e 90 91
e 90 116
e 91 92
e 91 117
e 92 93
e 92 118
e 93 94
e 93 119
e 94 95
e 94 120
e 95 96
e 95 121
e 96 97
e 96 122
e 97 98
e 97 123
e 98 99
e 98 124
e 99 100
e 99 125
e 100 101
e 100 126
e 101 102
e 101 127
e 102 103
e 102 128
e 103 104
e 103 129
e 104 130
e 105 106
e 105 131
e 106 107
e 106 132
e 107 108
e 107 133
e 108 109
e 108 134
e 109 110
e 109 135
e 110 111
e 110 136
e 111 112
e 111 137
e 112 113
e 112 138
e 113 114
e 113 139
e 114 115
e 114 140
e 115 116
e 115 141
e 116 117
e 116 142
e 117 118
e 117 143
e 118 119
e 118 144
e 119 120
e 119 145
e 120 121
e 120 146
e 121 122
e 121 147
e 122 123
e 122 148
e 123 124
e 123 149
e 124 125
e 124 150
e 125 126
e 125 151
e 126 127
e 126 152
e 127 128
e 127 153
e 128 129
e 128 154
e 129 130
e 129 155
e 130 156
e 131 132
e 131 157
e 132 133
e 132 158
e 133 134
e 133 159
e 134 135
e 134 160
e 135 136
e 135 161
e 136 137
e 136 162
e 137 138
e 137 163
e 138 139
e 138 164
e 139 140
e 139 165
e 140 141
e 140 166
e 141 142
e 141 167
e 142 143
e 142 168
e 143 144
e 143 169
e 144 145
e 144 170
e 145 146
e 145 171
e 146 147
e 146 172
e 147 148
e 147 173
e 148 149
e 148 174
e 149 150
e 149 175
e 150 151
e 150 176
e 151 152
e 151 177
e 152 153
e 152 178
e 153 154
e 153 179
e 154 155
e 154 180
e 155 156
e 155 181
e 156 182
e 157 158
e 157 183
e 158 159
e 158 184
e 159 160
e 159 185
e 160 161
e 160 186
e 161 162
e 161 187
e 162 163
e 162 188
e 163 164
e 163 189
e 164 165
e 164 190
e 165 166
e 165 191
e 166 167
e 166 192
e 167 168
e 167 193
e 168 169
e 168 194
e 169 170
e 169 195
e 170 171
e 170 196
e 171 172
e 171 197
e 172 173
e 172 198
e 173 174
e 173 199
e 174 175
e 174 200
e 175 176
e 175 201
e 176 177
e 176 202
e 177 178
e 177 203
e 178 179
e 178 204
e 179 180
e 179 205
e 180 181
e 180 206
e 181 182
e 181 207
e 182 208
e 183 184
e 183 209
e 184 185
e 184 210
e 185 186
e 185 211
e 186 187
e 186 212
e 187 188
e 187 213
e 188 189
e 188 214
e 189 190
e 189 215
e 190 191
e 190 216
e 191 192
e 191 217
e 192 193
e 192 218
e 193 194
e 193 219
e 194 195
e 194 220
e 195 196
e 195 221
e 196 197
e 196 222
e 197 198
e 197 223
e 198 199
e 198 224
e 199 200
e 199 225
e 200 201
e 200 226
e 201 202
e 201 227
e 202 203
e 202 228
e 203 204
e 203 229
e 204 205
e 204 230
e 205 206
e 205 231
e 206 207
e 206 232
e 207 208
e 207 233
e 208 234
e 209 210
e 209 235
e 210 211
e 210 236
e 211 212
e 211 237
e 212 213
e 212 238
e 213 214
e 213 239
e 214 215
e 214 240
e 215 216
e 215 241
e 216 217
e 216 242
e 217 218
e 217 243
e 218 219
e 218 244
e 219 220
e 219 245
e 220 221
e 220 246
e 221 222
e 221 247
e 222 223
e 222 248
e 223 224
e 223 249
e 224 225
e 224 250
e 225 226
e 225 251
e 226 227
e 226 252
e 227 228
e 227 253
e 228 229
e 228 254
e 229 230
e 229 255
e 230 231
e 230 256
e 231 232
e 231 257
e 232 233
e 232 258
e 233 234
e 233 259
e 234 260
e 235 236
e 235 261
e 236 237
e 236 262
e 237 238
e 237 263
e 238 239
e 238 264
e 239 240
e 239 265
e 240 241
e 240 266
e 241 242
e 241 267
e 242 243
e 242 268
e 243 244
e 243 269
e 244 245
e 244 270
e 245 246
e 245 271
e 246 247
e 246 272
e 247 248
e 247 273
e 248 249
e 248 274
e 249 250
e 249 275
e 250 251
e 250 276
e 251 252
e 251 277
e 252 253
e 252 278
e 253 254
e 253 279
e 254 255
e 254 280
e 255 256
e 255 281
e 256 257
e 256 282
e 257 258
e 257 283
e 258 259
e 258 284
e 259 260
e 259 285
e 260 286
e 261 262
e 261 287
e 262 263
e 262 288
e 263 264
e 263 289
e 264 265
e 264 290
e 265 266
e 265 291
e 266 267
e 266 292
e 267 268
e 267 293
e 268 269
e 268 294
e 269 270
e 269 295
e 270 271
e 270 296
e 271 272
e 271 297
e 272 273
e 272 298
e 273 274
e 273 299
e 274 275
e 274 300
e 275 276
e 275 301
e 276 277
e 276 302
e 277 278
e 277 303
e 278 279
e 278 304
e 279 280
e 279 305
e 280 281
e 280 306
e 281 282
e 281 307
e 282 283
e 282 308
e 283 284
e 283 309
e 284 285
e 284 310
e 285 286
e 285 311
e 286 312
e 287 288
e 287 313
e 288 289
e 288 314
e 289 290
e 289 315
e 290 291
e 290 316
e 291 292
e 291 317
e 292 293
e 292 318
e 293 294
e 293 319
e 294 295
e 294 320
e 295 296
e 295 321
e 296 297
e 296 322
e 297 298
e 297 323
e 298 299
e 298 324
e 299 300
e 299 325
e 300 301
e 300 326
e 301 302
e 301 327
e 302 303
e 302 328
e 303 304
e 303 329
e 304 305
e 304 330
e 305 306
e 305 331
e 306 307
e 306 332
e 307 308
e 307 333
e 308 309
e 308 334
e 309 310
e 309 335
e 310 311
e 310 336
e 311 312
e 311 337
e 312 338
e 313 314
e 313 339
e 314 315
e 314 340
e 315 316
e 315 341
e 316 317
e 316 342
e 317 318
e 317 343
e 318 319
e 318 344
e 319 320
e 319 345
e 320 321
e 320 346
e 321 322
e 321 347
e 322 323
e 322 348
e 323 324
e 323 349
e 324 325
e 324 350
e 325 326
e 325 351
e 326 327
e 326 352
e 327 328
e 327 353
e 328 329
e 328 354
e 329 330
e 329 355
e 330 331
e 330 356
e 331 332
e 331 357
e 332 333
e 332 358
e 333 334
e 333 359
e 334 335
e 334 360
e 335 336
e 335 361
e 336 337
e 336 362
e 337 338
e 337 363
e 338 364
e 339 340
e 339 365
e 340 341
e 340 366
e 341 342
e 341 367
e 342 343
e 342 368
e 343 344
e 343 369
e 344 345
e 344 370
e 345 346
e 345 371
e 346 347
e 346 372
e 347 348
e 347 373
e 348 349
e 348 374
e 349 350
e 349 375
e 350 351
e 350 376
e 351 352
e 351 377
e 352 353
e 352 378
e 353 354
e 353 379
e 354 355
e 354 380
e 355 356
e 355 381
e 356 357
e 356 382
e 357 358
e 357 383
e 358 359
e 358 384
e 359 360
e 359 385
e 360 361
e 360 386
e 361 362
e 361 387
e 362 363
e 362 388
e 363 364
e 363 389
e 364 390
e 365 366
e 365 391
e 366 367
e 366 392
e 367 368
e 367 393
e 368 369
e 368 394
e 369 370
e 369 395
e 370 371
e 370 396
e 371 372
e 371 397
e 372 373
e 372 398
e 373 374
e 373 399
e 374 375
e 374 400
e 375 376
e 375 401
e 376 377
e 376 402
e 377 378
e 377 403
e 378 379
e 378 404
e 379 380
e 379 405
e 380 381
e 380 406
e 381 382
e 381 407
e 382 383
e 382 408
e 383 384
e 383 409
e 384 385
e 384 410
e 385 386
e 385 411
e 386 387
e 386 412
e 387 388
e 387 413
e 388 389
e 388 414
e 389 390
e 389 415
e 390 416
e 391 392
e 391 417
e 392 393
e 392 418
e 393 394
e 393 419
e 394 395
e 394 420
e 395 396
e 395 421
e 396 397
e 396 422
e 397 398
e 397 423
e 398 399
e 398 424
e 399 400
e 399 425
e 400 401
e 400 426
e 401 402
e 401 427
e 402 403
e 402 428
e 403 404
e 403 429
e 404 405
e 404 430
e 405 406
e 405 431
e 406 407
e 406 432
e 407 408
e 407 433
e 408 409
e 408 434
e 409 410
e 409 435
e 410 411
e 410 436
e 411 412
e 411 437
e 412 413
e 412 438
e 413 414
e 413 439
e 414 415
e 414 440
e 415 416
e 415 441
e 416 442
e 417 418
e 417 443
e 418 419
e 418 444
e 419 420
e 419 445
e 420 421
e 420 446
e 421 422
e 421 447
e 422 423
e 422 448
e 423 424
e 423 449
e 424 425
e 424 450
e 425 426
e 425 451
e 426 427
e 426 452
e 427 428
e 427 453
e 428 429
e 428 454
e 429 430
e 429 455
e 430 431
e 430 456
e 431 432
e 431 457
e 432 433
e 432 458
e 433 434
e 433 459
e 434 435
e 434 460
e 435 436
e 435 461
e 436 437
e 436 462
e 437 438
e 437 463
e 438 439
e 438 464
e 439 440
e 439 465
e 440 441
e 440 466
e 441 442
e 441 467
e 442 468
e 443 444
e 443 469
e 444 445
e 444 470
e 445 446
e 445 471
e 446 447
e 446 472
e 447 448
e 447 473
e 448 449
e 448 474
e 449 450
e 449 475
e 450 451
e 450 476
e 451 452
e 451 477
e 452 453
e 452 478
e 453 454
e 453 479
e 454 455
e 454 480
e 455 456
e 455 481
e 456 457
e 456 482
e 457 458
e 457 483
e 458 459
e 458 484
e 459 460
e 459 485
e 460 461
e 460 486
e 461 462
e 461 487
e 462 463
e 462 488
e 463 464
e 463 489
e 464 465
e 464 490
e 465 466
e 465 491
e 466 467
e 466 492
e 467 468
e 467 493
e 468 494
e 469 470
e 469 495
e 470 471
e 470 496
e 471 472
e 471 497
e 472 473
e 472 498
e 473 474
e 473 499
e 474 475
e 474 500
e 475 476
e 475 501
e 476 477
e 476 502
e 477 478
e 477 503
e 478 479
e 478 504
e 479 480
e 479 505
e 480 481
e 480 506
e 481 482
e 481 507
e 482 483
e 482 508
e 483 484
e 483 509
e 484 485
e 484 510
e 485 486
e 485 511
e 486 487
e 486 512
e 487 488
e 487 513
e 488 489
e 488 514
e 489 490
e 489 515
e 490 491
e 490 516
e 491 492
e 491 517
e 492 493
e 492 518
e 493 494
e 493 519
e 494 520
e 495 496
e 495 521
e 496 497
e 496 522
e 497 498
e 497 523
e 498 499
e 498 524
e 499 500
e 499 525
e 500 501
e 500 526
e 501 502
e 501 527
e 502 503
e 502 528
e 503 504
e 503 529
e 504 505
e 504 530
e 505 506
e 505 531
e 506 507
e 506 532
e 507 508
e 507 533
e 508 509
e 508 534
e 509 510
e 509 535
e 510 511
e 510 536
e 511 512
e 511 537
e 512 513
e 512 538
e 513 514
e 513 539
e 514 515
e 514 540
e 515 516
e 515 541
e 516 517
e 516 542
e 517 518
e 517 543
e 518 519
e 518 544
e 519 520
e 519 545
e 520 546
e 521 522
e 521 547
e 522 523
e 522 548
e 523 524
e 523 549
e 524 525
e 524 550
e 525 526
e 525 551
e 526 527
e 526 552
e 527 528
e 527 553
e 528 529
e 528 554
e 529 530
e 529 555
e 530 531
e 530 556
e 531 532
e 531 557
e 532 533
e 532 558
e 533 534
e 533 559
e 534 535
e 534 560
e 535 536
e 535 561
e 536 537
e 536 562
e 537 538
e 537 563
e 538 539
e 538 564
e 539 540
e 539 565
e 540 541
e 540 566
e 541 542
e 541 567
e 542 543
e 542 568
e 543 544
e 543 569
e 544 545
e 544 570
e 545 546
e 545 571
e 546 572
e 547 548
e 547 573
e 548 549
e 548 574
e 549 550
e 549 575
e 550 551
e 550 576
e 551 552
e 551 577
e 552 553
e 552 578
e 553 554
e 553 579
e 554 555
e 554 580
e 555 556
e 555 581
e 556 557
e 556 582
e 557 558
e 557 583
e 558 559
e 558 584
e 559 560
e 559 585
e 560 561
e 560 586
e 561 562
e 561 587
e 562 563
e 562 588
e 563 564
e 563 589
e 564 565
e 564 590
e 565 566
e 565 591
e 566 567
e 566 592
e 567 568
e 567 593
e 568 569
e 568 594
e 569 570
e 569 595
e 570 571
e 570 596
e 571 572
e 571 597
e 572 598
e 573 574
e 573 599
e 574 575
e 574 600
e 575 576
e 575 601
e 576 577
e 576 602
e 577 578
e 577 603
e 578 579
e 578 604
e 579 580
e 579 605
e 580 581
e 580 606
e 581 582
e 581 607
e 582 583
e 582 608
e 583 584
e 583 609
e 584 585
e 584 610
e 585 586
e 585 611
e 586 587
e 586 612
e 587 588
e 587 613
e 588 589
e 588 614
e 589 590
e 589 615
e 590 591
e 590 616
e 591 592
e 591 617
e 592 593
e 592 618
e 593 594
e 593 619
e 594 595
e 594 620
e 595 596
e 595 621
e 596 597
e 596 622
e 597 598
e 597 623
e 598 624
e 599 600
e 599 625
e 600 601
e 600 626
e 601 602
e 601 627
e 602 603
e 602 628
e 603 604
e 603 629
e 604 605
e 604 630
e 605 606
e 605 631
e 606 607
e 606 632
e 607 608
e 607 633
e 608 609
e 608 634
e 609 610
e 609 635
e 610 611
e 610 636
e 611 612
e 611 637
e 612 613
e 612 638
e 613 614
e 613 639
e 614 615
e 614 640
e 615 616
e 615 641
e 616 617
e 616 642
e 617 618
e 617 643
e 618 619
e 618 644
e 619 620
e 619 645
e 620 621
e 620 646
e 621 622
e 621 647
e 622 623
e 622 648
e 623 624
e 623 649
e 624 650
e 625 626
e 625 651
e 626 627
e 626 652
e 627 628
e 627 653
e 628 629
e 628 654
e 629 630
e 629 655
e 630 631
e 630 656
e 631 632
e 631 657
e 632 633
e 632 658
e 633 634
e 633 659
e 634 635
e 634 660
e 635 636
e 635 661
e 636 637
e 636 662
e 637 638
e 637 663
e 638 639
e 638 664
e 639 640
e 639 665
e 640 641
e 640 666
e 641 642
e 641 667
e 642 643
e 642 668
e 643 644
e 643 669
e 644 645
e 644 670
e 645 646
e 645 671
e 646 647
e 646 672
e 647 648
e 647 673
e 648 649
e 648 674
e 649 650
e 649 675
e 650 676
e 651 652
e 652 653
e 653 654
e 654 655
e 655 656
e 656 657
e 657 658
e 658 659
e 659 660
e 660 661
e 661 662
e 662 663
e 663 664
e 664 665
e 665 666
e 666 667
e 667 668
e 668 669
e 669 670
e 670 671
e 671 672
e 672 673
e 673 674
e 674 675
e 675 676
